NAME : X_38_seed_123_id_10
TYPE : CVRP
DIMENSION : 275
EDGE_WEIGHT_TYPE : EUC_2D
CAPACITY : 10
NODE_COORD_SECTION
1	83	519
2	35	105
3	309	13
4	840	551
5	785	460
6	45	82
7	664	714
8	33	102
9	815	509
10	865	507
11	9	60
12	828	555
13	837	600
14	814	561
15	61	141
16	63	177
17	936	540
18	1	157
19	328	49
20	180	54
21	875	593
22	347	34
23	49	107
24	841	547
25	833	597
26	106	36
27	883	662
28	234	40
29	8	98
30	870	543
31	54	279
32	849	520
33	346	7
34	118	85
35	839	552
36	83	148
37	380	21
38	93	117
39	409	71
40	864	425
41	255	31
42	818	641
43	217	33
44	49	95
45	328	61
46	351	0
47	24	69
48	908	639
49	840	517
50	19	130
51	45	94
52	847	617
53	79	11
54	252	187
55	315	272
56	86	100
57	872	568
58	888	623
59	154	183
60	860	658
61	306	101
62	370	29
63	923	464
64	24	140
65	881	520
66	807	586
67	864	564
68	62	35
69	79	82
70	760	577
71	990	678
72	300	39
73	233	147
74	778	395
75	58	92
76	340	25
77	353	101
78	44	78
79	436	59
80	194	75
81	347	41
82	853	580
83	808	588
84	102	119
85	302	16
86	384	84
87	846	500
88	25	34
89	356	52
90	29	153
91	790	559
92	846	569
93	212	42
94	834	514
95	912	591
96	385	9
97	830	419
98	27	131
99	855	549
100	6	164
101	47	182
102	851	554
103	861	511
104	824	566
105	181	53
106	30	105
107	347	36
108	849	487
109	51	126
110	107	37
111	822	528
112	84	215
113	269	14
114	117	24
115	88	74
116	75	137
117	816	605
118	839	555
119	892	588
120	788	587
121	932	758
122	99	173
123	268	16
124	839	543
125	875	472
126	881	577
127	800	547
128	846	552
129	867	459
130	105	188
131	941	357
132	133	49
133	861	573
134	810	558
135	48	107
136	25	148
137	312	97
138	377	44
139	772	534
140	17	113
141	805	561
142	867	535
143	769	617
144	18	50
145	3	133
146	402	5
147	37	95
148	837	552
149	7	190
150	266	53
151	69	148
152	251	17
153	364	19
154	131	96
155	858	639
156	16	78
157	383	28
158	428	107
159	771	548
160	73	196
161	858	508
162	285	27
163	77	137
164	800	528
165	79	45
166	764	631
167	320	39
168	64	117
169	21	55
170	306	24
171	80	127
172	744	539
173	314	40
174	317	62
175	362	36
176	125	15
177	168	81
178	290	167
179	300	32
180	74	210
181	790	480
182	886	506
183	49	23
184	139	100
185	50	134
186	306	87
187	29	133
188	845	528
189	13	179
190	66	81
191	710	622
192	189	85
193	23	151
194	858	538
195	819	570
196	201	31
197	860	536
198	300	13
199	748	598
200	16	146
201	234	37
202	768	506
203	864	555
204	155	79
205	818	555
206	14	117
207	368	37
208	789	509
209	827	575
210	39	123
211	47	107
212	879	654
213	744	572
214	260	87
215	292	116
216	63	49
217	123	67
218	349	37
219	101	48
220	199	119
221	234	14
222	360	18
223	297	7
224	905	465
225	249	89
226	850	571
227	859	828
228	291	11
229	189	69
230	36	179
231	84	82
232	772	521
233	981	559
234	27	82
235	764	549
236	885	523
237	715	571
238	154	257
239	879	608
240	47	107
241	26	134
242	824	520
243	877	575
244	845	548
245	343	13
246	346	55
247	899	574
248	824	612
249	63	128
250	242	215
251	254	52
252	768	470
253	30	120
254	842	747
255	855	594
256	785	537
257	351	11
258	432	150
259	335	50
260	865	418
261	922	515
262	291	33
263	268	115
264	55	168
265	848	507
266	48	70
267	886	609
268	58	141
269	836	534
270	760	495
271	751	537
272	529	129
273	848	567
274	873	505
275	32	63
DEMAND_SECTION
1	0
2	1
3	1
4	1
5	1
6	1
7	1
8	1
9	1
10	1
11	1
12	1
13	1
14	1
15	1
16	1
17	1
18	1
19	1
20	1
21	1
22	1
23	1
24	1
25	1
26	1
27	1
28	1
29	1
30	1
31	1
32	1
33	1
34	1
35	1
36	1
37	1
38	1
39	1
40	1
41	1
42	1
43	1
44	1
45	1
46	1
47	1
48	1
49	1
50	1
51	1
52	1
53	1
54	1
55	1
56	1
57	1
58	1
59	1
60	1
61	1
62	1
63	1
64	1
65	1
66	1
67	1
68	1
69	1
70	1
71	1
72	1
73	1
74	1
75	1
76	1
77	1
78	1
79	1
80	1
81	1
82	1
83	1
84	1
85	1
86	1
87	1
88	1
89	1
90	1
91	1
92	1
93	1
94	1
95	1
96	1
97	1
98	1
99	1
100	1
101	1
102	1
103	1
104	1
105	1
106	1
107	1
108	1
109	1
110	1
111	1
112	1
113	1
114	1
115	1
116	1
117	1
118	1
119	1
120	1
121	1
122	1
123	1
124	1
125	1
126	1
127	1
128	1
129	1
130	1
131	1
132	1
133	1
134	1
135	1
136	1
137	1
138	1
139	1
140	1
141	1
142	1
143	1
144	1
145	1
146	1
147	1
148	1
149	1
150	1
151	1
152	1
153	1
154	1
155	1
156	1
157	1
158	1
159	1
160	1
161	1
162	1
163	1
164	1
165	1
166	1
167	1
168	1
169	1
170	1
171	1
172	1
173	1
174	1
175	1
176	1
177	1
178	1
179	1
180	1
181	1
182	1
183	1
184	1
185	1
186	1
187	1
188	1
189	1
190	1
191	1
192	1
193	1
194	1
195	1
196	1
197	1
198	1
199	1
200	1
201	1
202	1
203	1
204	1
205	1
206	1
207	1
208	1
209	1
210	1
211	1
212	1
213	1
214	1
215	1
216	1
217	1
218	1
219	1
220	1
221	1
222	1
223	1
224	1
225	1
226	1
227	1
228	1
229	1
230	1
231	1
232	1
233	1
234	1
235	1
236	1
237	1
238	1
239	1
240	1
241	1
242	1
243	1
244	1
245	1
246	1
247	1
248	1
249	1
250	1
251	1
252	1
253	1
254	1
255	1
256	1
257	1
258	1
259	1
260	1
261	1
262	1
263	1
264	1
265	1
266	1
267	1
268	1
269	1
270	1
271	1
272	1
273	1
274	1
275	1
DEPOT_SECTION
1
-1
EOF
